NAME          COPTPROB
OBJSENSE
  MIN
ROWS
 N  __OBJ___
 L  C26     
 L  C49     
 L  C55     
 L  C102    
 L  C112    
 L  C143    
 L  C175    
 L  C178    
 L  C194    
 L  C198    
COLUMNS
    MARKER    'MARKER'                 'INTORG'
    x178      __OBJ___  309
    x178      C55       -1
    x178      C143      -1
    x223      __OBJ___  179
    x223      C26       -1
    x223      C198      -1
    x254      __OBJ___  27
    x254      C49       -1
    x254      C175      -1
    x335      __OBJ___  32
    x335      C102      -1
    x387      __OBJ___  41
    x387      C194      -1
    x387      C198      -1
    x396      __OBJ___  273
    x396      C26       -1
    x396      C178      -1
    x510      __OBJ___  237
    x510      C55       -1
    x510      C194      -1
    x601      __OBJ___  220
    x601      C55       -1
    x676      __OBJ___  22
    x676      C198      -1
    x1138     __OBJ___  57
    x1138     C49       -1
    x1138     C112      -1
    x1202     __OBJ___  170
    x1202     C26       -1
    x1205     __OBJ___  291
    x1205     C102      -1
    x1205     C143      -1
    x1249     __OBJ___  37
    x1249     C102      -1
    x1249     C112      -1
    x1564     __OBJ___  247
    x1564     C175      -1
    x1564     C178      -1
    MARKER    'MARKER'                 'INTEND'
RHS
    RHS       __OBJ___  -9153
    RHS       C26       -1
    RHS       C49       -1
    RHS       C55       -1
    RHS       C102      -1
    RHS       C112      -1
    RHS       C143      -1
    RHS       C175      -1
    RHS       C178      -1
    RHS       C194      -1
    RHS       C198      -1
BOUNDS
 UP BOUND     x178      1
 UP BOUND     x223      1
 UP BOUND     x254      1
 UP BOUND     x335      1
 UP BOUND     x387      1
 UP BOUND     x396      1
 UP BOUND     x510      1
 UP BOUND     x601      1
 UP BOUND     x676      1
 UP BOUND     x1138     1
 UP BOUND     x1202     1
 UP BOUND     x1205     1
 UP BOUND     x1249     1
 UP BOUND     x1564     1
ENDATA
